
Gurobi 10.0.1 (linux64) logging started Sun 13 Aug 2023 02:09:34 PM CDT

Set parameter LogFile to value "/home/dlcole3/graph_abstraction/plasmoexamples/SHP_serial/SHP_reserve_requirements/gurobi_logs/logfile20.log"
Set parameter NodefileStart to value 0.0005
Set parameter TimeLimit to value 36000
Gurobi Optimizer version 10.0.1 build v10.0.1rc0 (linux64)

CPU model: Intel(R) Xeon(R) CPU E5-2698 v4 @ 2.20GHz, instruction set [SSE2|AVX|AVX2]
Thread count: 40 physical cores, 80 logical processors, using up to 8 threads


Warning: excessive time spent in model updates.
Consider calling update less frequently.

Optimize a model with 1105538 rows, 641709 columns and 4644125 nonzeros
Model fingerprint: 0x5279d258
Variable types: 599982 continuous, 41727 integer (41727 binary)
Coefficient statistics:
  Matrix range     [5e-02, 2e+04]
  Objective range  [2e-01, 8e+04]
  Bounds range     [5e-02, 2e+04]
  RHS range        [3e-03, 7e+03]
Presolve removed 269322 rows and 124112 columns (presolve time = 5s) ...
Presolve removed 277002 rows and 125006 columns (presolve time = 10s) ...
Presolve removed 279186 rows and 128126 columns (presolve time = 15s) ...
Presolve removed 285130 rows and 132808 columns (presolve time = 20s) ...
Presolve removed 292074 rows and 132990 columns (presolve time = 25s) ...
Presolve removed 293383 rows and 133895 columns (presolve time = 30s) ...
Presolve removed 293433 rows and 133905 columns (presolve time = 35s) ...
Sparsify removed 131393 nonzeros (3%)
Presolve removed 293453 rows and 133165 columns
Presolve time: 39.87s
Presolved: 812085 rows, 508544 columns, 3890604 nonzeros
Variable types: 475217 continuous, 33327 integer (33284 binary)

Deterministic concurrent LP optimizer: primal simplex, dual simplex, and barrier
Showing barrier log only...

Root barrier log...

Elapsed ordering time = 5s
Elapsed ordering time = 17s
Elapsed ordering time = 21s
Elapsed ordering time = 25s
Elapsed ordering time = 32s
Elapsed ordering time = 35s
Elapsed ordering time = 40s
Elapsed ordering time = 44s
Elapsed ordering time = 45s
Elapsed ordering time = 50s
Elapsed ordering time = 55s
Elapsed ordering time = 57s
Elapsed ordering time = 60s
Elapsed ordering time = 65s
Ordering time: 68.99s

Barrier statistics:
 Dense cols : 137
 AA' NZ     : 2.263e+07
 Factor NZ  : 3.196e+08 (roughly 3.0 GB of memory)
 Factor Ops : 1.408e+12 (roughly 12 seconds per iteration)
 Threads    : 5

                  Objective                Residual
Iter       Primal          Dual         Primal    Dual     Compl     Time
   0  -2.12376081e+11 -1.80412248e+13  1.24e+04 2.12e+04  1.16e+08   130s
   1  -1.83722906e+11 -1.53563436e+13  1.10e+04 8.43e+06  9.48e+07   138s
   2  -1.19036418e+11 -1.06645945e+13  7.46e+03 2.21e+06  5.83e+07   150s
   3  -3.57017718e+10 -5.89086279e+12  2.46e+03 1.65e+04  1.99e+07   162s
   4  -1.29724856e+10 -2.66252427e+12  1.08e+03 5.80e+02  8.01e+06   175s
   5  -2.06419009e+09 -1.22937434e+12  4.48e+02 5.21e+01  3.10e+06   188s
   6   4.05243761e+09 -5.86502266e+11  1.10e+02 1.47e+00  8.38e+05   201s
   7   5.27755411e+09 -2.85309385e+11  3.77e+01 2.33e-01  2.95e+05   215s
   8   4.98368943e+09 -1.05233107e+11  1.33e+01 6.77e-02  9.24e+04   230s
   9   2.70841481e+09 -2.96622680e+10  2.80e+00 9.30e-03  2.20e+04   244s
  10   1.44433153e+09 -1.69789828e+10  1.40e+00 4.84e-03  1.18e+04   258s
  11   2.96345708e+08 -4.33814295e+09  2.03e-01 6.41e-04  2.79e+03   273s
  12   9.76118166e+07 -4.35176254e+08  7.50e-03 2.00e-04  3.14e+02   288s
  13   7.03228599e+07 -3.32138448e+07  5.00e-04 2.08e-05  6.09e+01   305s
  14   5.66968021e+07  8.27818237e+06  6.50e-05 6.35e-04  2.85e+01   320s
  15   5.41806803e+07  2.67609335e+07  3.67e-05 4.30e-04  1.61e+01   334s
  16   5.20926734e+07  3.68336889e+07  2.12e-05 2.43e-04  8.98e+00   350s
  17   5.06474715e+07  4.30118010e+07  1.44e-05 9.54e-05  4.49e+00   364s
  18   4.97034152e+07  4.50506012e+07  9.63e-06 5.67e-05  2.74e+00   378s
  19   4.90237039e+07  4.63497219e+07  6.29e-06 3.42e-05  1.57e+00   390s
  20   4.84094049e+07  4.70505472e+07  3.32e-06 1.60e-05  8.00e-01   404s
  21   4.81319854e+07  4.73713307e+07  2.07e-06 9.20e-06  4.48e-01   416s
  22   4.79432924e+07  4.74815207e+07  1.25e-06 6.91e-06  2.72e-01   429s
  23   4.78582541e+07  4.75352075e+07  9.00e-07 3.51e-06  1.90e-01   441s
  24   4.78125595e+07  4.75474265e+07  7.02e-07 3.13e-06  1.56e-01   453s
  25   4.77972078e+07  4.75697450e+07  6.35e-07 2.23e-06  1.34e-01   464s
  26   4.77495860e+07  4.75971999e+07  4.43e-07 1.42e-06  8.97e-02   476s
  27   4.77147822e+07  4.76202288e+07  2.96e-07 7.31e-07  5.57e-02   489s
  28   4.76955060e+07  4.76277935e+07  2.14e-07 5.04e-07  3.99e-02   503s
  29   4.76715255e+07  4.76337481e+07  4.66e-07 3.24e-07  2.22e-02   520s
  30   4.76582709e+07  4.76401219e+07  3.88e-07 1.52e-07  1.07e-02   542s
  31   4.76511952e+07  4.76448800e+07  1.38e-06 2.44e-08  3.72e-03   563s
  32   4.76489784e+07  4.76456277e+07  8.63e-07 1.03e-08  1.97e-03   583s
  33   4.76473896e+07  4.76458858e+07  3.02e-07 5.15e-09  8.85e-04   598s
  34   4.76465991e+07  4.76459046e+07  9.27e-08 5.26e-09  4.09e-04   612s
  35   4.76464723e+07  4.76461869e+07  6.36e-08 4.65e-09  1.68e-04   627s
  36   4.76463321e+07  4.76462151e+07  2.90e-08 5.63e-09  6.89e-05   640s
  37   4.76462611e+07  4.76462184e+07  1.83e-08 1.69e-08  2.51e-05   656s
  38   4.76462233e+07  4.76462219e+07  2.71e-07 1.42e-08  8.30e-07   670s
  39   4.76462222e+07  4.76462221e+07  1.30e-06 9.75e-09  3.03e-08   683s
  40   4.76462221e+07  4.76462221e+07  5.44e-07 1.67e-08  3.59e-09   696s

Barrier solved model in 40 iterations and 695.98 seconds (625.67 work units)
Optimal objective 4.76462221e+07


Root crossover log...

  309438 DPushes remaining with DInf 0.0000000e+00               697s
  105101 DPushes remaining with DInf 0.0000000e+00               700s
   32630 DPushes remaining with DInf 0.0000000e+00               705s
   10117 DPushes remaining with DInf 0.0000000e+00               710s
       0 DPushes remaining with DInf 0.0000000e+00               715s

   20717 PPushes remaining with PInf 0.0000000e+00               715s
    1955 PPushes remaining with PInf 2.8321256e-04               721s
       0 PPushes remaining with PInf 0.0000000e+00               722s

  Push phase complete: Pinf 0.0000000e+00, Dinf 4.9371770e-07    722s


Root simplex log...

Iteration    Objective       Primal Inf.    Dual Inf.      Time
  153927    4.7646222e+07   0.000000e+00   0.000000e+00    723s
  153927    4.7646222e+07   0.000000e+00   0.000000e+00    725s
Waiting for other threads to finish...         792s
Waiting for other threads to finish...         859s
Concurrent spin time: 139.60s (can be avoided by choosing Method=3)

Solved with barrier

Root relaxation: objective 4.764622e+07, 153927 iterations, 820.11 seconds (611.78 work units)
Total elapsed time = 874.34s
Total elapsed time = 879.04s
Total elapsed time = 881.47s

    Nodes    |    Current Node    |     Objective Bounds      |     Work
 Expl Unexpl |  Obj  Depth IntInf | Incumbent    BestBd   Gap | It/Node Time

     0     0 4.7646e+07    0  297          - 4.7646e+07      -     -  893s
H    0     0                    7.372153e+07 4.7646e+07  35.4%     -  927s
H    0     0                    4.774296e+07 4.7646e+07  0.20%     -  945s

Explored 1 nodes (154185 simplex iterations) in 945.85 seconds (715.03 work units)
Thread count was 8 (of 80 available processors)

Solution count 3: 4.7743e+07 4.7743e+07 7.37215e+07 

Optimal solution found (tolerance 5.00e-02)
Best objective 4.774295912723e+07, best bound 4.764622207369e+07, gap 0.2026%

User-callback calls 163886, time in user-callback 0.61 sec
